






























































































18 52 33 67 
19 66 74 64 
46 73 2 15 
48 17 57 70 
32 0 76 36 
40 38 65 7 
45 53 3 42 
4 10 47 56 
63 60 25 34 
37 59 41 55 
54 27 1 29 
50 69 51 5 
31 24 68 
72 14 58 44 
28 6 61 23 
13 30 8 22 
35 62 43 
21 12 39 
71 11 20 75 
49 9 26 16 
